\ Model Inv_Master_Sub
\ LP format - for model browsing. Use MPS format to capture full model detail.
Maximize
  24 C0 + C1
Subject To
 R0: 6 C0 - C1 = 5
 R1: 5.25 C0 + 0.3333333333333335 C1 = 4
Bounds
End
